p edge 37 65
e 1 12
e 2 3
e 2 12
e 2 13
e 2 14
e 2 15
e 2 36
e 3 12
e 3 36
e 4 5
e 4 6
e 4 12
e 4 19
e 4 20
e 4 21
e 5 6
e 5 12
e 6 12
e 7 8
e 7 12
e 7 25
e 7 26
e 7 27
e 7 37
e 8 12
e 8 37
e 9 10
e 9 11
e 9 12
e 9 30
e 9 31
e 9 32
e 10 11
e 10 12
e 11 12
e 12 13
e 12 14
e 12 15
e 12 16
e 12 17
e 12 18
e 12 19
e 12 20
e 12 21
e 12 22
e 12 25
e 12 26
e 12 27
e 12 28
e 12 29
e 12 30
e 12 31
e 12 32
e 12 33
e 12 36
e 12 37
e 16 17
e 16 18
e 16 36
e 17 18
e 17 36
e 18 36
e 28 29
e 28 37
e 29 37
